\ Model model5. MPC stochastic50_stochastic
\ LP format - for model browsing. Use MPS format to capture full model detail.
Minimize
  0 C4 + C5 + 0 C91 + 0 C92 + 0 C93 + 0 C94 + 0 C95 + 0 C96 + 0 C97 + 0 C98
   + 0 C99 + 0 C100 + 0 C101 + 0 C102 + 0 C103 + 0 C104 + 0 C105 + 0 C106
   + 0 C107 + 0 C108 + 0 C109 + 0 C110 + 0.05 C111 + 0.05 C112 + 0.05 C113
   + 0.05 C114 + 0.05 C115 + 0.05 C116 + 0.05 C117 + 0.05 C118 + 0.05 C119
   + 0.05 C120 + 0.05 C121 + 0.05 C122 + 0.05 C123 + 0.05 C124 + 0.05 C125
   + 0.05 C126 + 0.05 C127 + 0.05 C128 + 0.05 C129 + 0.05 C130
Subject To
 PV_balance_1: C0 + C1 + C2 = 1039.387884
 SOC_update_1: C3 = 0.95
 PV_balance[2020-09-27_17_00_00,0]: C11 + C31 + C51 = 754.7954887729734
 PV_balance[2020-09-27_17_00_00,1]: C12 + C32 + C52 = 304.0473843996289
 PV_balance[2020-09-27_17_00_00,2]: C13 + C33 + C53 = 3730.607731954843
 PV_balance[2020-09-27_17_00_00,3]: C14 + C34 + C54 = 908.0506253624496
 PV_balance[2020-09-27_17_00_00,4]: C15 + C35 + C55 = 245.5738067418911
 PV_balance[2020-09-27_17_00_00,5]: C16 + C36 + C56 = 2298.906769616757
 PV_balance[2020-09-27_17_00_00,6]: C17 + C37 + C57 = 1859.39204712066
 PV_balance[2020-09-27_17_00_00,7]: C18 + C38 + C58 = 682.5604143703442
 PV_balance[2020-09-27_17_00_00,8]: C19 + C39 + C59 = 307.1677682544201
 PV_balance[2020-09-27_17_00_00,9]: C20 + C40 + C60 = 2390.718125748908
 PV_balance[2020-09-27_17_00_00,10]: C21 + C41 + C61 = 4900.866829731532
 PV_balance[2020-09-27_17_00_00,11]: C22 + C42 + C62 = 690.5655075059517
 PV_balance[2020-09-27_17_00_00,12]: C23 + C43 + C63 = 621.2011862497304
 PV_balance[2020-09-27_17_00_00,13]: C24 + C44 + C64 = 1035.547496518343
 PV_balance[2020-09-27_17_00_00,14]: C25 + C45 + C65 = 1565.067376182386
 PV_balance[2020-09-27_17_00_00,15]: C26 + C46 + C66 = 917.1645619994888
 PV_balance[2020-09-27_17_00_00,16]: C27 + C47 + C67 = 1698.20992764949
 PV_balance[2020-09-27_17_00_00,17]: C28 + C48 + C68 = 1835.890523816898
 PV_balance[2020-09-27_17_00_00,18]: C29 + C49 + C69 = 1619.134971837158
 PV_balance[2020-09-27_17_00_00,19]: C30 + C50 + C70 = 372.3527882960953
 SOC_continuity[0]: - C3 + C71 = 0
 SOC_continuity[1]: - C3 + C72 = 0
 SOC_continuity[2]: - C3 + C73 = 0
 SOC_continuity[3]: - C3 + C74 = 0
 SOC_continuity[4]: - C3 + C75 = 0
 SOC_continuity[5]: - C3 + C76 = 0
 SOC_continuity[6]: - C3 + C77 = 0
 SOC_continuity[7]: - C3 + C78 = 0
 SOC_continuity[8]: - C3 + C79 = 0
 SOC_continuity[9]: - C3 + C80 = 0
 SOC_continuity[10]: - C3 + C81 = 0
 SOC_continuity[11]: - C3 + C82 = 0
 SOC_continuity[12]: - C3 + C83 = 0
 SOC_continuity[13]: - C3 + C84 = 0
 SOC_continuity[14]: - C3 + C85 = 0
 SOC_continuity[15]: - C3 + C86 = 0
 SOC_continuity[16]: - C3 + C87 = 0
 SOC_continuity[17]: - C3 + C88 = 0
 SOC_continuity[18]: - C3 + C89 = 0
 SOC_continuity[19]: - C3 + C90 = 0
 Grid_balance_1: - C6 + [ C5 * C7 + C6 * C7 ] = 13255.109326
 Grid_bought_balance_1: C5 - C9 + [ - C8 * C10 ] = 0
 EV_balance_1: - C0 + [ C0 * C10 - C8 * C10 ] = 0
 Grid_balance[2020-09-27_17_00_00,0]: - C131 + [ C111 * C151 + C131 * C151
   ] = 12832.47267122703
 Grid_balance[2020-09-27_17_00_00,1]: - C132 + [ C112 * C152 + C132 * C152
   ] = 13283.22077560037
 Grid_balance[2020-09-27_17_00_00,2]: - C133 + [ C113 * C153 + C133 * C153
   ] = 9856.660428045157
 Grid_balance[2020-09-27_17_00_00,3]: - C134 + [ C114 * C154 + C134 * C154
   ] = 12679.21753463755
 Grid_balance[2020-09-27_17_00_00,4]: - C135 + [ C115 * C155 + C135 * C155
   ] = 13341.69435325811
 Grid_balance[2020-09-27_17_00_00,5]: - C136 + [ C116 * C156 + C136 * C156
   ] = 11288.36139038324
 Grid_balance[2020-09-27_17_00_00,6]: - C137 + [ C117 * C157 + C137 * C157
   ] = 11727.87611287934
 Grid_balance[2020-09-27_17_00_00,7]: - C138 + [ C118 * C158 + C138 * C158
   ] = 12904.70774562966
 Grid_balance[2020-09-27_17_00_00,8]: - C139 + [ C119 * C159 + C139 * C159
   ] = 13280.10039174558
 Grid_balance[2020-09-27_17_00_00,9]: - C140 + [ C120 * C160 + C140 * C160
   ] = 11196.55003425109
 Grid_balance[2020-09-27_17_00_00,10]: - C141 + [ C121 * C161 + C141 * C161
   ] = 8686.401330268469
 Grid_balance[2020-09-27_17_00_00,11]: - C142 + [ C122 * C162 + C142 * C162
   ] = 12896.70265249405
 Grid_balance[2020-09-27_17_00_00,12]: - C143 + [ C123 * C163 + C143 * C163
   ] = 12966.06697375027
 Grid_balance[2020-09-27_17_00_00,13]: - C144 + [ C124 * C164 + C144 * C164
   ] = 12551.72066348166
 Grid_balance[2020-09-27_17_00_00,14]: - C145 + [ C125 * C165 + C145 * C165
   ] = 12022.20078381761
 Grid_balance[2020-09-27_17_00_00,15]: - C146 + [ C126 * C166 + C146 * C166
   ] = 12670.10359800051
 Grid_balance[2020-09-27_17_00_00,16]: - C147 + [ C127 * C167 + C147 * C167
   ] = 11889.05823235051
 Grid_balance[2020-09-27_17_00_00,17]: - C148 + [ C128 * C168 + C148 * C168
   ] = 11751.3776361831
 Grid_balance[2020-09-27_17_00_00,18]: - C149 + [ C129 * C169 + C149 * C169
   ] = 11968.13318816284
 Grid_balance[2020-09-27_17_00_00,19]: - C150 + [ C130 * C170 + C150 * C170
   ] = 13214.9153717039
 Grid_bought_balance[2020-09-27_17_00_00,0]: C111 - C191 + [ - C171 * C211
   ] = 0
 Grid_bought_balance[2020-09-27_17_00_00,1]: C112 - C192 + [ - C172 * C212
   ] = 0
 Grid_bought_balance[2020-09-27_17_00_00,2]: C113 - C193 + [ - C173 * C213
   ] = 0
 Grid_bought_balance[2020-09-27_17_00_00,3]: C114 - C194 + [ - C174 * C214
   ] = 0
 Grid_bought_balance[2020-09-27_17_00_00,4]: C115 - C195 + [ - C175 * C215
   ] = 0
 Grid_bought_balance[2020-09-27_17_00_00,5]: C116 - C196 + [ - C176 * C216
   ] = 0
 Grid_bought_balance[2020-09-27_17_00_00,6]: C117 - C197 + [ - C177 * C217
   ] = 0
 Grid_bought_balance[2020-09-27_17_00_00,7]: C118 - C198 + [ - C178 * C218
   ] = 0
 Grid_bought_balance[2020-09-27_17_00_00,8]: C119 - C199 + [ - C179 * C219
   ] = 0
 Grid_bought_balance[2020-09-27_17_00_00,9]: C120 - C200 + [ - C180 * C220
   ] = 0
 Grid_bought_balance[2020-09-27_17_00_00,10]: C121 - C201 + [ - C181 * C221
   ] = 0
 Grid_bought_balance[2020-09-27_17_00_00,11]: C122 - C202 + [ - C182 * C222
   ] = 0
 Grid_bought_balance[2020-09-27_17_00_00,12]: C123 - C203 + [ - C183 * C223
   ] = 0
 Grid_bought_balance[2020-09-27_17_00_00,13]: C124 - C204 + [ - C184 * C224
   ] = 0
 Grid_bought_balance[2020-09-27_17_00_00,14]: C125 - C205 + [ - C185 * C225
   ] = 0
 Grid_bought_balance[2020-09-27_17_00_00,15]: C126 - C206 + [ - C186 * C226
   ] = 0
 Grid_bought_balance[2020-09-27_17_00_00,16]: C127 - C207 + [ - C187 * C227
   ] = 0
 Grid_bought_balance[2020-09-27_17_00_00,17]: C128 - C208 + [ - C188 * C228
   ] = 0
 Grid_bought_balance[2020-09-27_17_00_00,18]: C129 - C209 + [ - C189 * C229
   ] = 0
 Grid_bought_balance[2020-09-27_17_00_00,19]: C130 - C210 + [ - C190 * C230
   ] = 0
 EV_balance[2020-09-27_17_00_00,0]: - C11 + [ C11 * C211 - C171 * C211 ]
   = 0
 EV_balance[2020-09-27_17_00_00,1]: - C12 + [ C12 * C212 - C172 * C212 ]
   = 0
 EV_balance[2020-09-27_17_00_00,2]: - C13 + [ C13 * C213 - C173 * C213 ]
   = 0
 EV_balance[2020-09-27_17_00_00,3]: - C14 + [ C14 * C214 - C174 * C214 ]
   = 0
 EV_balance[2020-09-27_17_00_00,4]: - C15 + [ C15 * C215 - C175 * C215 ]
   = 0
 EV_balance[2020-09-27_17_00_00,5]: - C16 + [ C16 * C216 - C176 * C216 ]
   = 0
 EV_balance[2020-09-27_17_00_00,6]: - C17 + [ C17 * C217 - C177 * C217 ]
   = 0
 EV_balance[2020-09-27_17_00_00,7]: - C18 + [ C18 * C218 - C178 * C218 ]
   = 0
 EV_balance[2020-09-27_17_00_00,8]: - C19 + [ C19 * C219 - C179 * C219 ]
   = 0
 EV_balance[2020-09-27_17_00_00,9]: - C20 + [ C20 * C220 - C180 * C220 ]
   = 0
 EV_balance[2020-09-27_17_00_00,10]: - C21 + [ C21 * C221 - C181 * C221 ]
   = 0
 EV_balance[2020-09-27_17_00_00,11]: - C22 + [ C22 * C222 - C182 * C222 ]
   = 0
 EV_balance[2020-09-27_17_00_00,12]: - C23 + [ C23 * C223 - C183 * C223 ]
   = 0
 EV_balance[2020-09-27_17_00_00,13]: - C24 + [ C24 * C224 - C184 * C224 ]
   = 0
 EV_balance[2020-09-27_17_00_00,14]: - C25 + [ C25 * C225 - C185 * C225 ]
   = 0
 EV_balance[2020-09-27_17_00_00,15]: - C26 + [ C26 * C226 - C186 * C226 ]
   = 0
 EV_balance[2020-09-27_17_00_00,16]: - C27 + [ C27 * C227 - C187 * C227 ]
   = 0
 EV_balance[2020-09-27_17_00_00,17]: - C28 + [ C28 * C228 - C188 * C228 ]
   = 0
 EV_balance[2020-09-27_17_00_00,18]: - C29 + [ C29 * C229 - C189 * C229 ]
   = 0
 EV_balance[2020-09-27_17_00_00,19]: - C30 + [ C30 * C230 - C190 * C230 ]
   = 0
Bounds
 0.2 <= C3 <= 1
 C4 <= 3700
 0.2 <= C71 <= 1
 0.2 <= C72 <= 1
 0.2 <= C73 <= 1
 0.2 <= C74 <= 1
 0.2 <= C75 <= 1
 0.2 <= C76 <= 1
 0.2 <= C77 <= 1
 0.2 <= C78 <= 1
 0.2 <= C79 <= 1
 0.2 <= C80 <= 1
 0.2 <= C81 <= 1
 0.2 <= C82 <= 1
 0.2 <= C83 <= 1
 0.2 <= C84 <= 1
 0.2 <= C85 <= 1
 0.2 <= C86 <= 1
 0.2 <= C87 <= 1
 0.2 <= C88 <= 1
 0.2 <= C89 <= 1
 0.2 <= C90 <= 1
 C91 <= 3700
 C92 <= 3700
 C93 <= 3700
 C94 <= 3700
 C95 <= 3700
 C96 <= 3700
 C97 <= 3700
 C98 <= 3700
 C99 <= 3700
 C100 <= 3700
 C101 <= 3700
 C102 <= 3700
 C103 <= 3700
 C104 <= 3700
 C105 <= 3700
 C106 <= 3700
 C107 <= 3700
 C108 <= 3700
 C109 <= 3700
 C110 <= 3700
Binaries
 C7 C10 C151 C152 C153 C154 C155 C156 C157 C158 C159 C160 C161 C162 C163
 C164 C165 C166 C167 C168 C169 C170 C211 C212 C213 C214 C215 C216 C217 C218
 C219 C220 C221 C222 C223 C224 C225 C226 C227 C228 C229 C230
End
